p tw 28 194
0 1
0 2
0 3
0 5
0 16
0 17
0 19
0 20
0 12
0 15
0 10
0 25
0 22
0 27
0 9
0 13
0 23
0 8
1 2
1 12
1 21
1 8
1 19
1 6
1 7
1 11
1 13
1 23
1 16
1 17
1 20
1 26
1 10
1 18
2 3
2 4
2 12
2 13
2 6
2 11
2 18
2 8
2 5
2 7
2 15
2 19
2 10
3 4
3 5
3 10
3 11
3 20
3 7
3 17
3 24
3 16
3 21
3 13
3 19
3 23
3 15
3 26
3 8
4 8
4 9
4 20
4 24
4 21
4 22
4 18
4 5
4 11
4 10
4 12
4 13
5 6
5 7
5 14
5 15
5 12
5 24
5 20
5 16
5 10
5 26
5 11
5 8
5 18
5 22
5 13
6 7
6 11
6 10
6 22
6 8
6 16
6 14
6 25
6 18
7 13
7 16
7 17
7 11
7 10
7 9
7 14
7 15
8 9
8 19
8 16
8 15
8 26
8 18
8 22
8 24
8 12
8 11
8 20
9 13
9 14
9 12
9 25
10 11
10 18
10 22
10 25
10 26
10 14
10 24
10 17
10 12
10 27
10 13
11 18
11 21
11 24
11 14
11 22
11 20
11 13
11 15
12 13
12 21
12 14
12 16
12 15
12 19
12 24
12 22
12 20
12 25
13 16
13 15
13 17
13 19
13 23
13 24
14 15
14 16
14 22
14 23
14 25
14 24
14 17
15 17
15 24
15 26
15 19
15 25
15 22
15 27
15 20
16 17
16 21
17 24
17 25
18 27
18 19
18 26
19 20
19 21
19 25
19 27
19 26
20 24
20 26
21 22
21 24
22 23
22 24
22 27
22 26
23 26
23 24
